c turning on binary mode checking
c parsing input formula with 259840 variables and 1039934 clauses
c finished parsing, read 22859920 bytes from proof file
c detected empty clause; start verification via backward checking
c 2417 of 1039934 clauses in core                            
c 1644 of 598810 lemmas in core using 12441 resolution steps
c 0 RAT lemmas in core; 66 redundant literals in core lemmas
s VERIFIED
c verification time: 2.843 seconds
